num_stars = 1;
dim = 8;
sectors = [|
1, 1, 1, 2, 2, 2, 3, 3|
1, 1, 1, 1, 2, 2, 3, 3|
1, 1, 1, 1, 2, 2, 2, 2|
1, 1, 1, 1, 4, 5, 2, 2|
1, 1, 1, 1, 4, 5, 2, 5|
6, 6, 6, 1, 4, 5, 5, 5|
6, 6, 7, 7, 4, 5, 5, 5|
6, 6, 7, 4, 4, 8, 8, 8|];